TYPE : Vertex Cover
DIMENSION: 20
EDGE_DATA_SECTION:
0 4
0 5
0 14
1 4
1 8
1 17
2 10
2 11
2 12
2 17
3 4
3 6
3 8
3 10
4 5
4 6
4 10
5 7
5 9
5 14
5 17
5 19
6 8
6 12
6 14
6 18
7 13
7 17
7 18
8 10
8 11
8 13
8 15
8 19
9 14
9 16
9 17
9 19
11 18
12 19
13 14
13 17
13 19
15 19
17 19
-1
VERTEX_DEGREE:
3.0 3.0 4.0 4.0 6.0 7.0 6.0 4.0 8.0 5.0 4.0 3.0 3.0 5.0 5.0 2.0 1.0 7.0 3.0 7.0
VERTEX_COVER:
4 5 6 7 8 9 10 11 12 14 17 19
EOF
